occurs_abstract(action(("deliver-to-hangar","jig0003","dummy-jig","factory_trailer_1","hangarabs","pl0","n18","n09")),16).
occurs_abstract(action(("pick-up-rack","jig0003","factory_trailer_1","rack01","fside","bside","n18","n17","n35")),15).
occurs_abstract(action(("load-beluga","jig0001","typec","dummy-type","beluga3","beluga_trailer_1","slot0","dummy-slot")),14).
occurs_abstract(action(("pick-up-rack","jig0001","beluga_trailer_1","rack00","bside","fside","n09","n30","n39")),13).
occurs_abstract(action(("beluga-complete","beluga2","beluga3")),12).
occurs_abstract(action(("put-down-rack","jig0003","beluga_trailer_1","rack01","bside","n18","n35","n17")),11).
occurs_abstract(action(("unload-beluga","jig0003","dummy-jig","beluga_trailer_1","beluga2")),10).
occurs_abstract(action(("deliver-to-hangar","jig0002","dummy-jig","factory_trailer_1","hangarabs","pl1","n25","n18")),9).
occurs_abstract(action(("pick-up-rack","jig0002","factory_trailer_1","rack01","fside","bside","n25","n10","n35")),8).
occurs_abstract(action(("put-down-rack","jig0001","factory_trailer_1","rack00","fside","n09","n39","n30")),7).
occurs_abstract(action(("beluga-complete","beluga1","beluga2")),6).
occurs_abstract(action(("put-down-rack","jig0002","beluga_trailer_1","rack01","bside","n25","n35","n10")),5).
occurs_abstract(action(("unload-beluga","jig0002","dummy-jig","beluga_trailer_1","beluga1")),4).
occurs_abstract(action(("get-from-hangar","jig0001","hangarabs","factory_trailer_1")),3).
occurs_abstract(action(("deliver-to-hangar","jig0001","jig0003","factory_trailer_1","hangarabs","pl0","n18","n09")),2).
occurs_abstract(action(("pick-up-rack","jig0001","factory_trailer_1","rack01","fside","bside","n18","n17","n35")),1).