occurs_abstract(action(("deliver-to-hangar","jig0002","dummy-jig","factory_trailer_1","hangar3","pl0","n18","n09")),6).
occurs_abstract(action(("deliver-to-hangar","jig0001","dummy-jig","factory_trailer_2","hangar1","pl1","n25","n18")),5).
occurs_abstract(action(("pick-up-rack","jig0002","factory_trailer_1","rack00","fside","bside","n18","n04","n22")),4).
occurs_abstract(action(("put-down-rack","jig0002","beluga_abs_trailer","rack00","bside","n18","n22","n04")),3).
occurs_abstract(action(("pick-up-rack","jig0001","factory_trailer_2","rack01","fside","bside","n25","n15","n40")),2).
occurs_abstract(action(("unload-beluga","jig0002","dummy-jig","beluga_abs_trailer","beluga1")),1).