occurs_abstract(action(("deliver-to-hangar","jig0002","dummy-jig","factory_trailer_2","hangarabs","pl0","n18","n09")),6).
occurs_abstract(action(("deliver-to-hangar","jig0001","dummy-jig","factory_trailer_1","hangarabs","pl1","n25","n18")),5).
occurs_abstract(action(("pick-up-rack","jig0002","factory_trailer_2","rack01","fside","bside","n18","n22","n40")),4).
occurs_abstract(action(("put-down-rack","jig0002","beluga_trailer_2","rack01","bside","n18","n40","n22")),3).
occurs_abstract(action(("pick-up-rack","jig0001","factory_trailer_1","rack01","fside","bside","n25","n15","n40")),2).
occurs_abstract(action(("unload-beluga","jig0002","dummy-jig","beluga_trailer_2","beluga1")),1).