occurs_abstract(action(("deliver-to-hangar","jig0005","dummy-jig","factory_trailer_1","hangar1","pl1","n11","n08")),30).
occurs_abstract(action(("pick-up-rack","jig0005","factory_trailer_1","rack01","fside","bside","n11","n13","n24")),29).
occurs_abstract(action(("put-down-rack","jig0005","beluga_abs_trailer","rack01","bside","n11","n24","n13")),28).
occurs_abstract(action(("load-beluga","jig0002","typeb","dummy-type","beluga3","beluga_abs_trailer","slot2","dummy-slot")),27).
occurs_abstract(action(("load-beluga","jig0003","typeb","typeb","beluga3","beluga_abs_trailer","slot1","slot2")),26).
occurs_abstract(action(("load-beluga","jig0004","typeb","typeb","beluga3","beluga_abs_trailer","slot0","slot1")),25).
occurs_abstract(action(("beluga-complete","beluga2","beluga3")),24).
occurs_abstract(action(("unload-beluga","jig0005","dummy-jig","beluga_abs_trailer","beluga2")),23).
occurs_abstract(action(("beluga-complete","beluga1","beluga2")),22).
occurs_abstract(action(("pick-up-rack","jig0004","beluga_abs_trailer","rack00","bside","fside","n08","n24","n32")),21).
occurs_abstract(action(("put-down-rack","jig0004","factory_trailer_1","rack00","fside","n08","n32","n24")),20).
occurs_abstract(action(("pick-up-rack","jig0003","beluga_abs_trailer","rack00","bside","fside","n08","n24","n32")),19).
occurs_abstract(action(("pick-up-rack","jig0002","beluga_abs_trailer","rack01","bside","fside","n08","n16","n24")),18).
occurs_abstract(action(("put-down-rack","jig0002","factory_trailer_1","rack01","fside","n08","n24","n16")),17).
occurs_abstract(action(("get-from-hangar","jig0002","hangar1","factory_trailer_1")),16).
occurs_abstract(action(("put-down-rack","jig0003","factory_trailer_1","rack00","fside","n08","n32","n24")),15).
occurs_abstract(action(("deliver-to-hangar","jig0002","dummy-jig","factory_trailer_1","hangar1","pl0","n11","n08")),14).
occurs_abstract(action(("get-from-hangar","jig0003","hangar1","factory_trailer_1")),13).
occurs_abstract(action(("deliver-to-hangar","jig0003","jig0005","factory_trailer_1","hangar1","pl1","n11","n08")),12).
occurs_abstract(action(("pick-up-rack","jig0003","factory_trailer_1","rack01","fside","bside","n11","n13","n24")),11).
occurs_abstract(action(("load-beluga","jig0001","typed","dummy-type","beluga1","beluga_abs_trailer","slot0","dummy-slot")),10).
occurs_abstract(action(("unstack-rack","jig0002","jig0003","factory_trailer_1","rack01","fside","bside","n11","n02","n13")),9).
occurs_abstract(action(("stack-rack","jig0003","jig0002","beluga_abs_trailer","rack01","bside","fside","n11","n13","n02")),8).
occurs_abstract(action(("get-from-hangar","jig0004","hangar1","factory_trailer_1")),7).
occurs_abstract(action(("deliver-to-hangar","jig0004","dummy-jig","factory_trailer_1","hangar1","pl2","n11","n08")),6).
occurs_abstract(action(("pick-up-rack","jig0004","factory_trailer_1","rack00","fside","bside","n11","n21","n32")),5).
occurs_abstract(action(("put-down-rack","jig0004","beluga_abs_trailer","rack00","bside","n11","n32","n21")),4).
occurs_abstract(action(("unload-beluga","jig0004","dummy-jig","beluga_abs_trailer","beluga1")),3).
occurs_abstract(action(("unload-beluga","jig0003","jig0004","beluga_abs_trailer","beluga1")),2).
occurs_abstract(action(("pick-up-rack","jig0001","beluga_abs_trailer","rack00","bside","fside","n18","n14","n32")),1).